p cnf 1719
-22 -540
-23 -543
-24 -546
-25 -549
-26 -552
-27 -555
-28 -558
-29 -561
-30 -564
-31 -567
-32 -570
-33 -573
-34 -576
-35 -579
-36 -582
-37 -585
-38 -588
-39 -591
-40 -594
-41 -597
-42 -600
-43 601
-44 602
-45 603
-46 604
-47 605
-48 606
-49 607
-50 608
-51 609
-52 610
-53 611
-54 612
-55 613
-56 614
-57 615
-58 616
-59 617
-60 -23
-60 -24
23 24 60
-61 -25
-61 -26
25 26 61
-62 -27
-62 -28
27 28 62
-63 -29
-63 -30
29 30 63
-64 -31
-64 -32
31 32 64
-65 -33
-65 -34
33 34 65
-66 -35
-66 -36
35 36 66
-67 -37
-67 -38
37 38 67
-68 -39
-68 -40
39 40 68
-69 -41
-69 -42
41 42 69
-70 -43
-70 -44
43 44 70
-71 -45
-71 -46
45 46 71
-72 -47
-72 -48
47 48 72
-73 -49
-73 -50
49 50 73
-74 -51
-74 -52
51 52 74
-75 -53
-75 -54
53 54 75
-76 -55
-76 -56
55 56 76
-77 -57
-77 -58
57 58 77
-78 60
-78 61
-60 -61 78
-79 62
-79 63
-62 -63 79
-80 64
-80 65
-64 -65 80
-81 66
-81 67
-66 -67 81
-82 68
-82 69
-68 -69 82
-83 70
-83 71
-70 -71 83
-84 72
-84 73
-72 -73 84
-85 74
-85 75
-74 -75 85
-86 76
-86 77
-76 -77 86
-87 78
-87 79
-78 -79 87
-88 80
-88 81
-80 -81 88
-89 82
-89 83
-82 -83 89
-90 84
-90 85
-84 -85 90
-91 -59
-91 86
59 -86 91
-92 87
-92 88
-87 -88 92
-93 89
-93 90
-89 -90 93
-94 92
-94 93
-92 -93 94
-95 91
-95 94
-91 -94 95
-96 -22
-96 23
22 -23 96
-97 22
-97 -23
-22 23 97
-98 -96
-98 -97
96 97 98
-99 22
-99 23
-22 -23 99
-100 -22
-100 -98
22 98 100
-101 22
-101 98
-22 -98 101
-102 -100
-102 -101
100 101 102
-103 22
-103 -98
-22 98 103
-104 -99
-104 -103
99 103 104
-105 -23
-105 24
23 -24 105
-106 23
-106 -24
-23 24 106
-107 -105
-107 -106
105 106 107
-108 23
-108 24
-23 -24 108
-109 104
-109 -107
-104 107 109
-110 -104
-110 107
104 -107 110
-111 -109
-111 -110
109 110 111
-112 -104
-112 -107
104 107 112
-113 -108
-113 -112
108 112 113
-114 -24
-114 25
24 -25 114
-115 24
-115 -25
-24 25 115
-116 -114
-116 -115
114 115 116
-117 24
-117 25
-24 -25 117
-118 113
-118 -116
-113 116 118
-119 -113
-119 116
113 -116 119
-120 -118
-120 -119
118 119 120
-121 -113
-121 -116
113 116 121
-122 -117
-122 -121
117 121 122
-123 -25
-123 26
25 -26 123
-124 25
-124 -26
-25 26 124
-125 -123
-125 -124
123 124 125
-126 25
-126 26
-25 -26 126
-127 122
-127 -125
-122 125 127
-128 -122
-128 125
122 -125 128
-129 -127
-129 -128
127 128 129
-130 -122
-130 -125
122 125 130
-131 -126
-131 -130
126 130 131
-132 -26
-132 27
26 -27 132
-133 26
-133 -27
-26 27 133
-134 -132
-134 -133
132 133 134
-135 26
-135 27
-26 -27 135
-136 131
-136 -134
-131 134 136
-137 -131
-137 134
131 -134 137
-138 -136
-138 -137
136 137 138
-139 -131
-139 -134
131 134 139
-140 -135
-140 -139
135 139 140
-141 -27
-141 28
27 -28 141
-142 27
-142 -28
-27 28 142
-143 -141
-143 -142
141 142 143
-144 27
-144 28
-27 -28 144
-145 140
-145 -143
-140 143 145
-146 -140
-146 143
140 -143 146
-147 -145
-147 -146
145 146 147
-148 -140
-148 -143
140 143 148
-149 -144
-149 -148
144 148 149
-150 -28
-150 29
28 -29 150
-151 28
-151 -29
-28 29 151
-152 -150
-152 -151
150 151 152
-153 28
-153 29
-28 -29 153
-154 149
-154 -152
-149 152 154
-155 -149
-155 152
149 -152 155
-156 -154
-156 -155
154 155 156
-157 -149
-157 -152
149 152 157
-158 -153
-158 -157
153 157 158
-159 -29
-159 30
29 -30 159
-160 29
-160 -30
-29 30 160
-161 -159
-161 -160
159 160 161
-162 29
-162 30
-29 -30 162
-163 158
-163 -161
-158 161 163
-164 -158
-164 161
158 -161 164
-165 -163
-165 -164
163 164 165
-166 -158
-166 -161
158 161 166
-167 -162
-167 -166
162 166 167
-168 -30
-168 31
30 -31 168
-169 30
-169 -31
-30 31 169
-170 -168
-170 -169
168 169 170
-171 30
-171 31
-30 -31 171
-172 167
-172 -170
-167 170 172
-173 -167
-173 170
167 -170 173
-174 -172
-174 -173
172 173 174
-175 -167
-175 -170
167 170 175
-176 -171
-176 -175
171 175 176
-177 -31
-177 32
31 -32 177
-178 31
-178 -32
-31 32 178
-179 -177
-179 -178
177 178 179
-180 31
-180 32
-31 -32 180
-181 176
-181 -179
-176 179 181
-182 -176
-182 179
176 -179 182
-183 -181
-183 -182
181 182 183
-184 -176
-184 -179
176 179 184
-185 -180
-185 -184
180 184 185
-186 -32
-186 33
32 -33 186
-187 32
-187 -33
-32 33 187
-188 -186
-188 -187
186 187 188
-189 32
-189 33
-32 -33 189
-190 185
-190 -188
-185 188 190
-191 -185
-191 188
185 -188 191
-192 -190
-192 -191
190 191 192
-193 -185
-193 -188
185 188 193
-194 -189
-194 -193
189 193 194
-195 -33
-195 34
33 -34 195
-196 33
-196 -34
-33 34 196
-197 -195
-197 -196
195 196 197
-198 33
-198 34
-33 -34 198
-199 194
-199 -197
-194 197 199
-200 -194
-200 197
194 -197 200
-201 -199
-201 -200
199 200 201
-202 -194
-202 -197
194 197 202
-203 -198
-203 -202
198 202 203
-204 -34
-204 35
34 -35 204
-205 34
-205 -35
-34 35 205
-206 -204
-206 -205
204 205 206
-207 34
-207 35
-34 -35 207
-208 203
-208 -206
-203 206 208
-209 -203
-209 206
203 -206 209
-210 -208
-210 -209
208 209 210
-211 -203
-211 -206
203 206 211
-212 -207
-212 -211
207 211 212
-213 -35
-213 36
35 -36 213
-214 35
-214 -36
-35 36 214
-215 -213
-215 -214
213 214 215
-216 35
-216 36
-35 -36 216
-217 212
-217 -215
-212 215 217
-218 -212
-218 215
212 -215 218
-219 -217
-219 -218
217 218 219
-220 -212
-220 -215
212 215 220
-221 -216
-221 -220
216 220 221
-222 -36
-222 37
36 -37 222
-223 36
-223 -37
-36 37 223
-224 -222
-224 -223
222 223 224
-225 36
-225 37
-36 -37 225
-226 221
-226 -224
-221 224 226
-227 -221
-227 224
221 -224 227
-228 -226
-228 -227
226 227 228
-229 -221
-229 -224
221 224 229
-230 -225
-230 -229
225 229 230
-231 -37
-231 38
37 -38 231
-232 37
-232 -38
-37 38 232
-233 -231
-233 -232
231 232 233
-234 37
-234 38
-37 -38 234
-235 230
-235 -233
-230 233 235
-236 -230
-236 233
230 -233 236
-237 -235
-237 -236
235 236 237
-238 -230
-238 -233
230 233 238
-239 -234
-239 -238
234 238 239
-240 -38
-240 39
38 -39 240
-241 38
-241 -39
-38 39 241
-242 -240
-242 -241
240 241 242
-243 38
-243 39
-38 -39 243
-244 239
-244 -242
-239 242 244
-245 -239
-245 242
239 -242 245
-246 -244
-246 -245
244 245 246
-247 -239
-247 -242
239 242 247
-248 -243
-248 -247
243 247 248
-249 -39
-249 40
39 -40 249
-250 39
-250 -40
-39 40 250
-251 -249
-251 -250
249 250 251
-252 39
-252 40
-39 -40 252
-253 248
-253 -251
-248 251 253
-254 -248
-254 251
248 -251 254
-255 -253
-255 -254
253 254 255
-256 -248
-256 -251
248 251 256
-257 -252
-257 -256
252 256 257
-258 -40
-258 41
40 -41 258
-259 40
-259 -41
-40 41 259
-260 -258
-260 -259
258 259 260
-261 40
-261 41
-40 -41 261
-262 257
-262 -260
-257 260 262
-263 -257
-263 260
257 -260 263
-264 -262
-264 -263
262 263 264
-265 -257
-265 -260
257 260 265
-266 -261
-266 -265
261 265 266
-267 -41
-267 42
41 -42 267
-268 41
-268 -42
-41 42 268
-269 -267
-269 -268
267 268 269
-270 41
-270 42
-41 -42 270
-271 266
-271 -269
-266 269 271
-272 -266
-272 269
266 -269 272
-273 -271
-273 -272
271 272 273
-274 -266
-274 -269
266 269 274
-275 -270
-275 -274
270 274 275
-276 -42
-276 43
42 -43 276
-277 42
-277 -43
-42 43 277
-278 -276
-278 -277
276 277 278
-279 42
-279 43
-42 -43 279
-280 275
-280 -278
-275 278 280
-281 -275
-281 278
275 -278 281
-282 -280
-282 -281
280 281 282
-283 -275
-283 -278
275 278 283
-284 -279
-284 -283
279 283 284
-285 -43
-285 44
43 -44 285
-286 43
-286 -44
-43 44 286
-287 -285
-287 -286
285 286 287
-288 43
-288 44
-43 -44 288
-289 284
-289 -287
-284 287 289
-290 -284
-290 287
284 -287 290
-291 -289
-291 -290
289 290 291
-292 -284
-292 -287
284 287 292
-293 -288
-293 -292
288 292 293
-294 -44
-294 45
44 -45 294
-295 44
-295 -45
-44 45 295
-296 -294
-296 -295
294 295 296
-297 44
-297 45
-44 -45 297
-298 293
-298 -296
-293 296 298
-299 -293
-299 296
293 -296 299
-300 -298
-300 -299
298 299 300
-301 -293
-301 -296
293 296 301
-302 -297
-302 -301
297 301 302
-303 -45
-303 46
45 -46 303
-304 45
-304 -46
-45 46 304
-305 -303
-305 -304
303 304 305
-306 45
-306 46
-45 -46 306
-307 302
-307 -305
-302 305 307
-308 -302
-308 305
302 -305 308
-309 -307
-309 -308
307 308 309
-310 -302
-310 -305
302 305 310
-311 -306
-311 -310
306 310 311
-312 -46
-312 47
46 -47 312
-313 46
-313 -47
-46 47 313
-314 -312
-314 -313
312 313 314
-315 46
-315 47
-46 -47 315
-316 311
-316 -314
-311 314 316
-317 -311
-317 314
311 -314 317
-318 -316
-318 -317
316 317 318
-319 -311
-319 -314
311 314 319
-320 -315
-320 -319
315 319 320
-321 -47
-321 48
47 -48 321
-322 47
-322 -48
-47 48 322
-323 -321
-323 -322
321 322 323
-324 47
-324 48
-47 -48 324
-325 320
-325 -323
-320 323 325
-326 -320
-326 323
320 -323 326
-327 -325
-327 -326
325 326 327
-328 -320
-328 -323
320 323 328
-329 -324
-329 -328
324 328 329
-330 -48
-330 49
48 -49 330
-331 48
-331 -49
-48 49 331
-332 -330
-332 -331
330 331 332
-333 48
-333 49
-48 -49 333
-334 329
-334 -332
-329 332 334
-335 -329
-335 332
329 -332 335
-336 -334
-336 -335
334 335 336
-337 -329
-337 -332
329 332 337
-338 -333
-338 -337
333 337 338
-339 -49
-339 50
49 -50 339
-340 49
-340 -50
-49 50 340
-341 -339
-341 -340
339 340 341
-342 49
-342 50
-49 -50 342
-343 338
-343 -341
-338 341 343
-344 -338
-344 341
338 -341 344
-345 -343
-345 -344
343 344 345
-346 -338
-346 -341
338 341 346
-347 -342
-347 -346
342 346 347
-348 -50
-348 51
50 -51 348
-349 50
-349 -51
-50 51 349
-350 -348
-350 -349
348 349 350
-351 50
-351 51
-50 -51 351
-352 347
-352 -350
-347 350 352
-353 -347
-353 350
347 -350 353
-354 -352
-354 -353
352 353 354
-355 -347
-355 -350
347 350 355
-356 -351
-356 -355
351 355 356
-357 -51
-357 52
51 -52 357
-358 51
-358 -52
-51 52 358
-359 -357
-359 -358
357 358 359
-360 51
-360 52
-51 -52 360
-361 356
-361 -359
-356 359 361
-362 -356
-362 359
356 -359 362
-363 -361
-363 -362
361 362 363
-364 -356
-364 -359
356 359 364
-365 -360
-365 -364
360 364 365
-366 -52
-366 53
52 -53 366
-367 52
-367 -53
-52 53 367
-368 -366
-368 -367
366 367 368
-369 52
-369 53
-52 -53 369
-370 365
-370 -368
-365 368 370
-371 -365
-371 368
365 -368 371
-372 -370
-372 -371
370 371 372
-373 -365
-373 -368
365 368 373
-374 -369
-374 -373
369 373 374
-375 -53
-375 54
53 -54 375
-376 53
-376 -54
-53 54 376
-377 -375
-377 -376
375 376 377
-378 53
-378 54
-53 -54 378
-379 374
-379 -377
-374 377 379
-380 -374
-380 377
374 -377 380
-381 -379
-381 -380
379 380 381
-382 -374
-382 -377
374 377 382
-383 -378
-383 -382
378 382 383
-384 -54
-384 55
54 -55 384
-385 54
-385 -55
-54 55 385
-386 -384
-386 -385
384 385 386
-387 54
-387 55
-54 -55 387
-388 383
-388 -386
-383 386 388
-389 -383
-389 386
383 -386 389
-390 -388
-390 -389
388 389 390
-391 -383
-391 -386
383 386 391
-392 -387
-392 -391
387 391 392
-393 -55
-393 56
55 -56 393
-394 55
-394 -56
-55 56 394
-395 -393
-395 -394
393 394 395
-396 55
-396 56
-55 -56 396
-397 392
-397 -395
-392 395 397
-398 -392
-398 395
392 -395 398
-399 -397
-399 -398
397 398 399
-400 -392
-400 -395
392 395 400
-401 -396
-401 -400
396 400 401
-402 -56
-402 57
56 -57 402
-403 56
-403 -57
-56 57 403
-404 -402
-404 -403
402 403 404
-405 56
-405 57
-56 -57 405
-406 401
-406 -404
-401 404 406
-407 -401
-407 404
401 -404 407
-408 -406
-408 -407
406 407 408
-409 -401
-409 -404
401 404 409
-410 -405
-410 -409
405 409 410
-411 -57
-411 58
57 -58 411
-412 57
-412 -58
-57 58 412
-413 -411
-413 -412
411 412 413
-414 57
-414 58
-57 -58 414
-415 410
-415 -413
-410 413 415
-416 -410
-416 413
410 -413 416
-417 -415
-417 -416
415 416 417
-418 -410
-418 -413
410 413 418
-419 -414
-419 -418
414 418 419
-420 -58
-420 59
58 -59 420
-421 58
-421 -59
-58 59 421
-422 -420
-422 -421
420 421 422
-423 58
-423 59
-58 -59 423
-424 419
-424 -422
-419 422 424
-425 -419
-425 422
419 -422 425
-426 -424
-426 -425
424 425 426
-427 -419
-427 -422
419 422 427
-428 -423
-428 -427
423 427 428
-429 22
-429 -102
-22 102 429
-430 -22
-430 24
22 -24 430
-431 -429
-431 -430
429 430 431
-432 22
-432 -111
-22 111 432
-433 -22
-433 25
22 -25 433
-434 -432
-434 -433
432 433 434
-435 22
-435 -120
-22 120 435
-436 -22
-436 26
22 -26 436
-437 -435
-437 -436
435 436 437
-438 22
-438 -129
-22 129 438
-439 -22
-439 27
22 -27 439
-440 -438
-440 -439
438 439 440
-441 22
-441 -138
-22 138 441
-442 -22
-442 28
22 -28 442
-443 -441
-443 -442
441 442 443
-444 22
-444 -147
-22 147 444
-445 -22
-445 29
22 -29 445
-446 -444
-446 -445
444 445 446
-447 22
-447 -156
-22 156 447
-448 -22
-448 30
22 -30 448
-449 -447
-449 -448
447 448 449
-450 22
-450 -165
-22 165 450
-451 -22
-451 31
22 -31 451
-452 -450
-452 -451
450 451 452
-453 22
-453 -174
-22 174 453
-454 -22
-454 32
22 -32 454
-455 -453
-455 -454
453 454 455
-456 22
-456 -183
-22 183 456
-457 -22
-457 33
22 -33 457
-458 -456
-458 -457
456 457 458
-459 22
-459 -192
-22 192 459
-460 -22
-460 34
22 -34 460
-461 -459
-461 -460
459 460 461
-462 22
-462 -201
-22 201 462
-463 -22
-463 35
22 -35 463
-464 -462
-464 -463
462 463 464
-465 22
-465 -210
-22 210 465
-466 -22
-466 36
22 -36 466
-467 -465
-467 -466
465 466 467
-468 22
-468 -219
-22 219 468
-469 -22
-469 37
22 -37 469
-470 -468
-470 -469
468 469 470
-471 22
-471 -228
-22 228 471
-472 -22
-472 38
22 -38 472
-473 -471
-473 -472
471 472 473
-474 22
-474 -237
-22 237 474
-475 -22
-475 39
22 -39 475
-476 -474
-476 -475
474 475 476
-477 22
-477 -246
-22 246 477
-478 -22
-478 40
22 -40 478
-479 -477
-479 -478
477 478 479
-480 22
-480 -255
-22 255 480
-481 -22
-481 41
22 -41 481
-482 -480
-482 -481
480 481 482
-483 22
-483 -264
-22 264 483
-484 -22
-484 42
22 -42 484
-485 -483
-485 -484
483 484 485
-486 22
-486 -273
-22 273 486
-487 -22
-487 43
22 -43 487
-488 -486
-488 -487
486 487 488
-489 22
-489 -282
-22 282 489
-490 -22
-490 44
22 -44 490
-491 -489
-491 -490
489 490 491
-492 22
-492 -291
-22 291 492
-493 -22
-493 45
22 -45 493
-494 -492
-494 -493
492 493 494
-495 22
-495 -300
-22 300 495
-496 -22
-496 46
22 -46 496
-497 -495
-497 -496
495 496 497
-498 22
-498 -309
-22 309 498
-499 -22
-499 47
22 -47 499
-500 -498
-500 -499
498 499 500
-501 22
-501 -318
-22 318 501
-502 -22
-502 48
22 -48 502
-503 -501
-503 -502
501 502 503
-504 22
-504 -327
-22 327 504
-505 -22
-505 49
22 -49 505
-506 -504
-506 -505
504 505 506
-507 22
-507 -336
-22 336 507
-508 -22
-508 50
22 -50 508
-509 -507
-509 -508
507 508 509
-510 22
-510 -345
-22 345 510
-511 -22
-511 51
22 -51 511
-512 -510
-512 -511
510 511 512
-513 22
-513 -354
-22 354 513
-514 -22
-514 52
22 -52 514
-515 -513
-515 -514
513 514 515
-516 22
-516 -363
-22 363 516
-517 -22
-517 53
22 -53 517
-518 -516
-518 -517
516 517 518
-519 22
-519 -372
-22 372 519
-520 -22
-520 54
22 -54 520
-521 -519
-521 -520
519 520 521
-522 22
-522 -381
-22 381 522
-523 -22
-523 55
22 -55 523
-524 -522
-524 -523
522 523 524
-525 22
-525 -390
-22 390 525
-526 -22
-526 56
22 -56 526
-527 -525
-527 -526
525 526 527
-528 22
-528 -399
-22 399 528
-529 -22
-529 57
22 -57 529
-530 -528
-530 -529
528 529 530
-531 22
-531 -408
-22 408 531
-532 -22
-532 58
22 -58 532
-533 -531
-533 -532
531 532 533
-534 22
-534 -417
-22 417 534
-535 -22
-535 59
22 -59 535
-536 -534
-536 -535
534 535 536
-537 22
-537 -426
-22 426 537
-538 1
-538 95
-1 -95 538
-539 -95
-539 96
95 -96 539
-540 -538
-540 -539
538 539 540
-541 2
-541 95
-2 -95 541
-542 -95
-542 -431
95 431 542
-543 -541
-543 -542
541 542 543
-544 3
-544 95
-3 -95 544
-545 -95
-545 -434
95 434 545
-546 -544
-546 -545
544 545 546
-547 4
-547 95
-4 -95 547
-548 -95
-548 -437
95 437 548
-549 -547
-549 -548
547 548 549
-550 5
-550 95
-5 -95 550
-551 -95
-551 -440
95 440 551
-552 -550
-552 -551
550 551 552
-553 6
-553 95
-6 -95 553
-554 -95
-554 -443
95 443 554
-555 -553
-555 -554
553 554 555
-556 7
-556 95
-7 -95 556
-557 -95
-557 -446
95 446 557
-558 -556
-558 -557
556 557 558
-559 8
-559 95
-8 -95 559
-560 -95
-560 -449
95 449 560
-561 -559
-561 -560
559 560 561
-562 9
-562 95
-9 -95 562
-563 -95
-563 -452
95 452 563
-564 -562
-564 -563
562 563 564
-565 10
-565 95
-10 -95 565
-566 -95
-566 -455
95 455 566
-567 -565
-567 -566
565 566 567
-568 11
-568 95
-11 -95 568
-569 -95
-569 -458
95 458 569
-570 -568
-570 -569
568 569 570
-571 12
-571 95
-12 -95 571
-572 -95
-572 -461
95 461 572
-573 -571
-573 -572
571 572 573
-574 13
-574 95
-13 -95 574
-575 -95
-575 -464
95 464 575
-576 -574
-576 -575
574 575 576
-577 14
-577 95
-14 -95 577
-578 -95
-578 -467
95 467 578
-579 -577
-579 -578
577 578 579
-580 15
-580 95
-15 -95 580
-581 -95
-581 -470
95 470 581
-582 -580
-582 -581
580 581 582
-583 16
-583 95
-16 -95 583
-584 -95
-584 -473
95 473 584
-585 -583
-585 -584
583 584 585
-586 17
-586 95
-17 -95 586
-587 -95
-587 -476
95 476 587
-588 -586
-588 -587
586 587 588
-589 18
-589 95
-18 -95 589
-590 -95
-590 -479
95 479 590
-591 -589
-591 -590
589 590 591
-592 19
-592 95
-19 -95 592
-593 -95
-593 -482
95 482 593
-594 -592
-594 -593
592 593 594
-595 20
-595 95
-20 -95 595
-596 -95
-596 -485
95 485 596
-597 -595
-597 -596
595 596 597
-598 21
-598 95
-21 -95 598
-599 -95
-599 -488
95 488 599
-600 -598
-600 -599
598 599 600
-601 -95
-601 -491
95 491 601
-602 -95
-602 -494
95 494 602
-603 -95
-603 -497
95 497 603
-604 -95
-604 -500
95 500 604
-605 -95
-605 -503
95 503 605
-606 -95
-606 -506
95 506 606
-607 -95
-607 -509
95 509 607
-608 -95
-608 -512
95 512 608
-609 -95
-609 -515
95 515 609
-610 -95
-610 -518
95 518 610
-611 -95
-611 -521
95 521 611
-612 -95
-612 -524
95 524 612
-613 -95
-613 -527
95 527 613
-614 -95
-614 -530
95 530 614
-615 -95
-615 -533
95 533 615
-616 -95
-616 -536
95 536 616
-617 -95
-617 537
95 -537 617
-618 -59
-618 428
59 -428 618
-619 22
-619 -618
-22 618 619
619
